networks/zoo_116_1984/zoo_116_1984-lower.txt
Number of groups: 63
Flow 47: {1 33 0} {33 35 0} {35 49 0} {49 107 0} 
Flow 69: {2 5 0} {5 11 0} {11 42 0} 
Flow 112: {3 33 0} {33 54 0} {54 112 0} 
Flow 141: {4 35 0} {35 37 0} {37 95 0} 
Flow 159: {5 8 0} {8 66 0} 
Flow 237: {6 53 0} {53 7 0} {7 43 0} {43 101 0} 
Flow 276: {7 53 0} {53 19 0} {19 39 0} {39 97 0} 
Flow 290: {43 11 0} {11 44 0} {44 58 0} {58 116 0} 
Flow 307: {8 5 0} {5 53 0} {53 57 0} {57 115 0} 
Flow 326: {9 23 0} {23 22 0} {22 24 0} {24 82 0} 
Flow 369: {10 56 0} {56 35 0} {35 25 0} {25 83 0} 
Flow 445: {12 11 0} {11 5 0} {5 2 0} {2 60 0} 
Flow 475: {13 21 0} {21 22 0} {22 11 0} {11 53 0} {53 111 0} 
Flow 476: {14 28 0} {28 15 0} {15 53 0} {53 6 0} {6 64 0} 
Flow 519: {16 35 0} {35 36 0} 
Flow 549: {17 32 0} {32 90 0} 
Flow 607: {53 5 0} {5 63 0} 
Flow 648: {19 47 0} {47 48 0} {48 106 0} 
Flow 662: {20 22 0} {22 80 0} 
Flow 702: {11 43 0} {43 7 0} {7 65 0} 
Flow 712: {22 20 0} {20 78 0} 
Flow 797: {44 15 0} {15 55 0} {55 113 0} 
Flow 810: {24 22 0} {22 19 0} {19 77 0} 
Flow 841: {25 35 0} {35 26 0} {26 84 0} 
Flow 896: {26 35 0} {35 38 0} {38 52 0} {52 110 0} 
Flow 917: {27 53 0} {53 42 0} {42 100 0} 
Flow 944: {28 29 0} {29 87 0} 
Flow 990: {29 28 0} {28 57 0} {57 38 0} {38 96 0} 
Flow 999: {30 32 0} {32 33 0} {33 1 0} {1 59 0} 
Flow 1004: {23 9 0} {9 67 0} 
Flow 1041: {31 32 0} {32 18 0} {18 54 0} {54 36 0} {36 94 0} 
Flow 1089: {32 15 0} {15 47 0} {47 105 0} 
Flow 1092: {33 16 0} {16 51 0} {51 109 0} 
Flow 1142: {47 46 0} {46 104 0} 
Flow 1178: {34 16 0} {16 33 0} {33 32 0} {32 31 0} {31 89 0} 
Flow 1213: {35 54 0} {54 18 0} {18 76 0} 
Flow 1291: {36 54 0} 
Flow 1292: {36 35 0} {35 56 0} {56 114 0} 
Flow 1305: {37 57 0} {57 28 0} {28 14 0} {14 72 0} 
Flow 1357: {38 57 0} 
Flow 1371: {40 47 0} {47 15 0} {15 28 0} {28 86 0} 
Flow 1390: {41 19 0} {19 53 0} {53 35 0} {35 4 0} {4 62 0} 
Flow 1408: {42 11 0} {11 69 0} 
Flow 1411: {42 53 0} {53 15 0} {15 33 0} {33 91 0} 
Flow 1472: {45 47 0} 
Flow 1493: {46 47 0} {47 19 0} {19 22 0} {22 23 0} {23 81 0} 
Flow 1556: {47 45 0} {45 103 0} 
Flow 1583: {48 47 0} 
Flow 1634: {49 35 0} {35 33 0} {33 50 0} {50 108 0} 
Flow 1655: {50 33 0} {33 15 0} {15 73 0} 
Flow 1701: {51 16 0} {16 74 0} 
Flow 1717: {52 38 0} {38 35 0} {35 93 0} 
Flow 1732: {21 13 0} {13 71 0} 
Flow 1759: {47 40 0} {40 98 0} 
Flow 1778: {54 33 0} {33 3 0} {3 61 0} 
Flow 1788: {18 32 0} {32 17 0} {17 75 0} 
Flow 1796: {54 35 0} {35 53 0} {53 27 0} {27 85 0} 
Flow 1833: {55 15 0} {15 44 0} {44 11 0} {11 22 0} {22 21 0} {21 79 0} 
Flow 1862: {56 10 0} {10 68 0} 
Flow 1911: {57 53 0} {53 11 0} {11 12 0} {12 70 0} 
Flow 1933: {57 37 0} {37 35 0} {35 16 0} {16 34 0} {34 92 0} 
Flow 1970: {15 32 0} {32 30 0} {30 88 0} 
Flow 1979: {58 44 0} {44 102 0} 
Time taken running everything: 11 seconds
